p edge 68 225
e 1 39
e 1 41
e 1 52
e 2 5
e 2 65
e 2 67
e 3 4
e 3 5
e 3 7
e 3 9
e 3 22
e 3 51
e 3 58
e 3 60
e 3 62
e 3 68
e 4 8
e 4 18
e 4 33
e 4 38
e 4 39
e 4 44
e 4 53
e 4 60
e 5 31
e 5 58
e 6 8
e 6 17
e 6 18
e 6 19
e 6 35
e 6 38
e 6 39
e 6 44
e 6 57
e 6 64
e 7 16
e 7 20
e 7 27
e 7 37
e 7 39
e 7 44
e 7 51
e 8 30
e 8 38
e 8 47
e 8 49
e 8 51
e 8 57
e 9 13
e 9 18
e 9 33
e 9 43
e 9 47
e 9 48
e 9 54
e 9 57
e 9 58
e 9 63
e 10 11
e 10 18
e 10 28
e 10 42
e 10 45
e 11 18
e 11 19
e 11 20
e 11 22
e 11 33
e 11 59
e 11 64
e 11 67
e 12 13
e 12 32
e 12 40
e 13 25
e 13 30
e 13 31
e 13 44
e 13 58
e 14 16
e 14 46
e 14 49
e 14 52
e 14 63
e 15 25
e 15 26
e 15 41
e 15 45
e 15 47
e 15 48
e 15 51
e 15 52
e 16 21
e 16 54
e 17 19
e 17 26
e 17 36
e 18 19
e 18 23
e 18 28
e 18 33
e 18 48
e 18 57
e 18 67
e 19 41
e 19 45
e 19 50
e 20 27
e 20 28
e 20 30
e 20 35
e 20 47
e 20 52
e 20 55
e 20 62
e 20 64
e 21 31
e 21 52
e 21 57
e 21 67
e 22 32
e 22 34
e 22 43
e 22 47
e 22 53
e 22 59
e 22 60
e 23 43
e 23 44
e 23 52
e 23 55
e 24 41
e 24 46
e 24 53
e 24 54
e 24 63
e 26 38
e 26 57
e 26 64
e 26 67
e 27 33
e 27 49
e 27 52
e 28 36
e 28 46
e 28 67
e 29 30
e 29 34
e 29 58
e 30 43
e 30 44
e 30 53
e 30 56
e 30 63
e 31 40
e 31 43
e 31 52
e 32 55
e 33 59
e 33 63
e 34 49
e 34 61
e 34 63
e 35 40
e 35 42
e 35 57
e 35 66
e 36 40
e 36 48
e 36 53
e 36 61
e 37 40
e 37 41
e 37 52
e 38 48
e 38 57
e 38 62
e 38 68
e 39 60
e 39 61
e 39 68
e 40 46
e 40 58
e 40 59
e 40 66
e 42 43
e 42 48
e 42 63
e 42 67
e 43 64
e 43 67
e 44 48
e 44 58
e 44 64
e 44 66
e 44 67
e 45 51
e 45 57
e 45 60
e 45 63
e 46 67
e 49 50
e 50 66
e 51 56
e 51 58
e 51 59
e 52 58
e 52 60
e 53 66
e 54 55
e 54 60
e 54 64
e 54 67
e 56 57
e 56 62
e 56 63
e 56 64
e 56 67
e 56 68
e 57 58
e 57 67
e 58 61
e 60 66
e 60 67
